NAME: ACTUAL_TOURS/amz1369
TYPE: TOUR
COMMENT: RouteID_9098e81b-4b14-4596-b257-041a17b51bcc
DIMENSION: 107
TOUR_SECTION
92
51
41
7
53
48
30
8
23
91
13
61
11
103
87
55
10
107
98
31
3
82
94
78
47
95
100
66
75
63
105
5
37
57
16
28
22
74
88
39
36
14
97
77
71
90
93
101
83
15
104
44
70
49
68
67
17
86
35
46
4
20
43
65
50
21
29
56
54
73
6
64
72
62
38
26
1
42
80
19
18
76
69
9
102
84
24
27
40
106
52
79
12
81
25
60
96
99
58
32
33
85
89
59
45
2
34
-1
EOF
